
Gurobi 11.0.3 (linux64) logging started Sun Nov 24 06:00:03 2024

Set parameter LogFile to value "/home/yihong/Coding/OR_SUC/SUC_results_bigM100000_thread4/case24_ieee_rts_theta0.1_epsilon0.05_gurobi_seed1250000_num_gen100_N_WDR100_load_scaling_factor1_proposed_T24quadra_cost.txt"
Set parameter TimeLimit to value 3600
Gurobi Optimizer version 11.0.3 build v11.0.3rc0 (linux64 - "Ubuntu 20.04.6 LTS")

CPU model: AMD EPYC 7532 32-Core Processor, instruction set [SSE2|AVX|AVX2]
Thread count: 64 physical cores, 128 logical processors, using up to 4 threads

Optimize a model with 57558 rows, 29861 columns and 1315898 nonzeros
Model fingerprint: 0x4340c034
Model has 2400 quadratic constraints
Variable types: 27461 continuous, 2400 integer (2400 binary)
Coefficient statistics:
  Matrix range     [3e-04, 2e+03]
  QMatrix range    [2e-03, 8e-03]
  QLMatrix range   [8e-02, 6e+01]
  Objective range  [1e+00, 1e+00]
  Bounds range     [1e+00, 1e+00]
  RHS range        [1e+00, 9e+03]
Presolve removed 46983 rows and 12635 columns
Presolve time: 0.44s
Presolved: 10575 rows, 17226 columns, 58479 nonzeros
Presolved model has 2400 quadratic constraint(s)
Variable types: 14826 continuous, 2400 integer (2400 binary)

Root relaxation: objective 3.283413e+04, 8586 iterations, 0.27 seconds (0.38 work units)

    Nodes    |    Current Node    |     Objective Bounds      |     Work
 Expl Unexpl |  Obj  Depth IntInf | Incumbent    BestBd   Gap | It/Node Time

     0     0 32834.1269    0   24          - 32834.1269      -     -    0s
     0     0 266550.873    0  825          - 266550.873      -     -    1s
     0     0 310699.641    0  859          - 310699.641      -     -    1s
     0     0 565277.300    0  881          - 565277.300      -     -    1s
     0     0 565319.726    0  579          - 565319.726      -     -    1s
     0     0 565681.911    0  363          - 565681.911      -     -    2s
     0     0 565686.744    0  363          - 565686.744      -     -    2s
     0     0 565690.178    0  363          - 565690.178      -     -    2s
     0     0 565690.696    0  363          - 565690.696      -     -    2s
     0     2 565690.696    0  363          - 565690.696      -     -    2s
   827   829 566635.280  174   70          - 565694.605      -  10.3    5s
H  830   497                    565957.62351 565694.605  0.05%  10.3    5s
*  830   497             202    565957.62351 565694.605  0.05%  10.3    5s

Cutting planes:
  Gomory: 4
  Implied bound: 408
  MIR: 132
  Flow cover: 363

Explored 852 nodes (33458 simplex iterations) in 5.81 seconds (7.77 work units)
Thread count was 4 (of 128 available processors)

Solution count 2: 565958 565958 

Optimal solution found (tolerance 1.00e-03)
Warning: max constraint violation (2.8128e-07) exceeds tolerance
Best objective 5.659576235140e+05, best bound 5.656946054076e+05, gap 0.0465%
